proyfinal/src/viki/013/experimentInOfficeAgust.take6.output/3ed0b34d-7971-43c8-ac11-4e0c59781a93.als.dat
{'cnf.clauses': '118081',
 'cnf.totvars': '69608',
 'conflict literals': '4',
 'conflicts': '4',
 'decisions': '1259',
 'memused.mb': '16.69',
 'outcome': 'UNSAT',
 'propagations': '21529',
 'restarts': '1',
 'solver.msecs': 32,
 'task.msecs': 77}
