proyfinal/src/viki/013/experimentInOfficeAgust.take6.output/3ed0b34d-7971-43c8-ac11-4e0c59781a93.als.out
Reading from standard input... Use '--help' for help.
============================[ Problem Statistics ]=============================
|                                                                             |
|  Number of variables:         69608                                         |
|  Number of clauses:          118081                                         |
|  Parse time:                   0.02 s                                       |
|                                                                             |
============================[ Search Statistics ]==============================
| Conflicts |          ORIGINAL         |          LEARNT          | Progress |
|           |    Vars  Clauses Literals |    Limit  Clauses Lit/Cl |          |
===============================================================================
===============================================================================
restarts              : 1
conflicts             : 4              (121 /sec)
decisions             : 1259           (0.00 % random) (38227 /sec)
propagations          : 21529          (653681 /sec)
conflict literals     : 4              (0.00 % deleted)
Memory used           : 16.69 MB
CPU time              : 0.032935 s

UNSATISFIABLE
